100
120
98
97
95
93
93
92
92
92
91
90
89
89
89
88
86
84
84
84
83
83
82
82
81
81
79
78
77
75
73
72
72
71
71
70
69
68
65
65
64
64
62
61
60
57
55
55
53
51
51
50
50
50
48
46
45
42
42
41
41
41
41
41
40
39
39
37
36
35
34
33
33
33
30
30
29
27
25
23
23
23
23
19
19
16
16
14
14
14
14
12
12
10
8
8
7
7
6
5
3
3
